ShipType={RoRo,LoLo,Bulk,LiquidBulk,Cruise};

nrBerths=31;
berthType=[{Cruise},{RoRo},{RoRo},{Bulk},{Bulk},{Bulk},{Bulk},{LoLo,Bulk},{LoLo,Bulk},{Bulk},{RoRo},{RoRo},{LoLo,Bulk},{LoLo,Bulk},{LoLo,Bulk},{LoLo},{LoLo},{LoLo},{LoLo},{Bulk},{Bulk},{RoRo},{LoLo},{LoLo},{RoRo},{RoRo},{RoRo},{LiquidBulk},{LiquidBulk},{LiquidBulk},{LiquidBulk}];
berthLength=[200,156,156,100,125,125,125,140,140,130,120,120,120,120,120,120,140,140,140,180,180,213,290,290,205,190,200,220,220,220,220];
depth=[650,590,590,610,900,900,900,950,950,950,1030,1030,1000,1000,1000,740,1100,1100,800,1100,1100,1100,1100,1100,800,800,800,1100,1100,1100,1100];

nrShips=39;
shipType=[Cruise,Cruise,Cruise,RoRo,RoRo,RoRo,RoRo,RoRo,RoRo,RoRo,RoRo,RoRo,RoRo,RoRo,RoRo,RoRo,RoRo,RoRo,RoRo,RoRo,RoRo,RoRo,RoRo,RoRo,LoLo,LoLo,LoLo,LoLo,LoLo,Bulk,Bulk,Bulk,Bulk,Bulk,LiquidBulk,LiquidBulk,LiquidBulk,LiquidBulk,LiquidBulk];
shipLength=[100,125,125,100,150,125,150,125,125,125,125,125,125,100,100,125,150,100,100,150,150,150,125,125,100,150,125,100,125,100,100,125,100,100,150,150,125,100,100];
draught=[590,590,590,590,590,590,590,590,590,590,590,590,590,590,590,590,590,590,590,590,590,590,590,590,590,590,590,590,590,590,590,590,590,590,590,590,590,590,590];
arrival=[24,122,216,92,188,284,380,476,572,668,20,116,212,308,404,500,596,550,646,89,10,59,37,54,63,20,15,37,20,57,76,45,4,51,98,14,59,58,92];
departure=[72,170,264,104,200,296,392,488,584,680,84,180,276,372,468,516,612,566,662,137,70,115,69,78,107,64,39,89,76,113,144,125,68,123,170,82,131,114,144];
